(set-logic QF_UF)
(declare-fun A0 () Bool)
(declare-fun A1 () Bool)
(declare-fun A2 () Bool)
(declare-fun A3 () Bool)
(declare-fun A4 () Bool)
(declare-fun A5 () Bool)
(declare-fun A6 () Bool)
(declare-fun A7 () Bool)
(declare-fun A8 () Bool)
(declare-fun A9 () Bool)
(declare-fun A10 () Bool)
(declare-fun A11 () Bool)
(declare-fun A12 () Bool)
(declare-fun A13 () Bool)
(declare-fun A14 () Bool)
(declare-fun A15 () Bool)
(declare-fun A17 () Bool)
(declare-fun A18 () Bool)
(declare-fun A19 () Bool)
(declare-fun A20 () Bool)
(declare-fun A23 () Bool)
(declare-fun A24 () Bool)
(declare-fun A25 () Bool)
(declare-fun A26 () Bool)
(declare-fun A27 () Bool)
(declare-fun A28 () Bool)
(declare-fun A29 () Bool)
(assert (let ((.def_0 (or A6 A12))) (let ((.def_1 (not .def_0))) (let ((.def_2 (not A14))) (let ((.def_3 (or A2 .def_2))) (let ((.def_4 (not .def_3))) (let ((.def_5 (and .def_4 .def_1))) (let ((.def_6 (and A19 A29))) (let ((.def_7 (not .def_6))) (let ((.def_8 (not A17))) (let ((.def_9 (and A6 .def_8))) (let ((.def_10 (not .def_9))) (let ((.def_11 (and .def_10 .def_7))) (let ((.def_12 (not .def_11))) (let ((.def_13 (= .def_12 .def_5))) (let ((.def_14 (and A1 A11))) (let ((.def_15 (not .def_14))) (let ((.def_16 (not A24))) (let ((.def_17 (not A3))) (let ((.def_18 (and .def_17 .def_16))) (let ((.def_19 (not .def_18))) (let ((.def_20 (or .def_19 .def_15))) (let ((.def_21 (not .def_20))) (let ((.def_22 (or A1 A20))) (let ((.def_23 (not .def_22))) (let ((.def_24 (not A11))) (let ((.def_25 (or .def_24 A18))) (let ((.def_26 (not .def_25))) (let ((.def_27 (and .def_26 .def_23))) (let ((.def_28 (or .def_27 .def_21))) (let ((.def_29 (not .def_28))) (let ((.def_30 (and .def_29 .def_13))) (let ((.def_31 (not .def_30))) (let ((.def_32 (not A20))) (let ((.def_33 (or A26 .def_32))) (let ((.def_34 (not .def_33))) (let ((.def_35 (or .def_2 .def_16))) (let ((.def_36 (not .def_35))) (let ((.def_37 (and .def_36 .def_34))) (let ((.def_38 (not .def_37))) (let ((.def_39 (or A7 A13))) (let ((.def_40 (not .def_39))) (let ((.def_41 (or .def_2 A1))) (let ((.def_42 (not .def_41))) (let ((.def_43 (= .def_42 .def_40))) (let ((.def_44 (or .def_43 .def_38))) (let ((.def_45 (or A29 A17))) (let ((.def_46 (not A0))) (let ((.def_47 (not A29))) (let ((.def_48 (and .def_47 .def_46))) (let ((.def_49 (or .def_48 .def_45))) (let ((.def_50 (and A17 A3))) (let ((.def_51 (not .def_50))) (let ((.def_52 (not A23))) (let ((.def_53 (or .def_52 A5))) (let ((.def_54 (and .def_53 .def_51))) (let ((.def_55 (and .def_54 .def_49))) (let ((.def_56 (not .def_55))) (let ((.def_57 (or .def_56 .def_44))) (let ((.def_58 (not .def_57))) (let ((.def_59 (= .def_58 .def_31))) (let ((.def_60 (not .def_59))) (let ((.def_61 (not A8))) (let ((.def_62 (or .def_61 A9))) (let ((.def_63 (not .def_62))) (let ((.def_64 (not A1))) (let ((.def_65 (and A10 .def_64))) (let ((.def_66 (not .def_65))) (let ((.def_67 (or .def_66 .def_63))) (let ((.def_68 (not .def_67))) (let ((.def_69 (or A28 A1))) (let ((.def_70 (not .def_69))) (let ((.def_71 (not A26))) (let ((.def_72 (not A25))) (let ((.def_73 (or .def_72 .def_71))) (let ((.def_74 (not .def_73))) (let ((.def_75 (and .def_74 .def_70))) (let ((.def_76 (not .def_75))) (let ((.def_77 (or .def_76 .def_68))) (let ((.def_78 (not .def_77))) (let ((.def_79 (and A27 A0))) (let ((.def_80 (not .def_79))) (let ((.def_81 (and A4 A26))) (let ((.def_82 (or .def_81 .def_80))) (let ((.def_83 (not .def_82))) (let ((.def_84 (or .def_8 A0))) (let ((.def_85 (not .def_84))) (let ((.def_86 (not .def_53))) (let ((.def_87 (= .def_86 .def_85))) (let ((.def_88 (and .def_87 .def_83))) (let ((.def_89 (and .def_88 .def_78))) (let ((.def_90 (not .def_89))) (let ((.def_91 (and .def_32 A7))) (let ((.def_92 (not A2))) (let ((.def_93 (or .def_92 A18))) (let ((.def_94 (or .def_93 .def_91))) (let ((.def_95 (and .def_24 A10))) (let ((.def_96 (not .def_95))) (let ((.def_97 (and .def_24 A14))) (let ((.def_98 (or .def_97 .def_96))) (let ((.def_99 (not .def_98))) (let ((.def_100 (or .def_99 .def_94))) (let ((.def_101 (and A6 A15))) (let ((.def_102 (not .def_101))) (let ((.def_103 (not A27))) (let ((.def_104 (or .def_103 .def_2))) (let ((.def_105 (not .def_104))) (let ((.def_106 (= .def_105 .def_102))) (let ((.def_107 (not .def_106))) (let ((.def_108 (not A6))) (let ((.def_109 (or A19 .def_108))) (let ((.def_110 (or .def_2 A29))) (let ((.def_111 (not .def_110))) (let ((.def_112 (and .def_111 .def_109))) (let ((.def_113 (or .def_112 .def_107))) (let ((.def_114 (and .def_113 .def_100))) (let ((.def_115 (not .def_114))) (let ((.def_116 (or .def_115 .def_90))) (let ((.def_117 (not .def_116))) (let ((.def_118 (and .def_117 .def_60))) .def_118))))))))))))))))))))))))))))))))))))))))))))))))))))))))))))))))))))))))))))))))))))))))))))))))))))))))))))))))))))))))
(check-sat)
